1748070
20,62,15,58,35,7,14,67,34,50,38,61,36,52,49,27,57,8,16,26,44,1,47,19,64,53,12,46,3,23,60,11,0,48,18,22,4,31,39,55,41,59,28,24,40,63,66,6,37,30,43,13,9,17,56,32,51,21,42,45,33,54,25,65,10,5,29,2
